c Random generated cnf formula, satisfiable: true
p cnf 10 50
-3 7 -4 0
-4 -6 -1 0
8 -6 -3 0
-2 -10 -3 0
8 -5 -1 0
-4 -8 -3 0
3 6 5 0
10 -3 -1 0
4 8 -1 0
8 3 -9 0
-7 6 -3 0
10 5 2 0
4 7 -8 0
-7 -9 3 0
2 -3 1 0
10 5 -8 0
1 2 -5 0
-3 9 4 0
2 -4 -9 0
7 -8 6 0
-9 -6 -1 0
3 2 -10 0
8 -4 3 0
-5 -10 -8 0
-1 -4 -8 0
-6 7 -8 0
-5 10 -2 0
-9 -5 -7 0
-10 8 5 0
1 2 9 0
10 -7 -2 0
-8 5 -7 0
-3 7 4 0
-6 3 2 0
8 -4 -7 0
2 10 3 0
-6 8 -4 0
-3 -9 8 0
-6 2 -4 0
8 -2 -1 0
-2 -3 -10 0
-8 1 -5 0
-5 -4 -2 0
8 -7 -2 0
-7 2 3 0
10 -3 -5 0
1 -5 -4 0
3 10 -5 0
-2 -9 7 0
-2 6 4 0
